# Solution for model GasLib-40
# Objective value = 1.3872958989024637e+01
loadshed[innode_1] 0
loadshed[innode_2] 0
loadshed[innode_3] 0
loadshed[innode_4] 0
loadshed[innode_5] 0
loadshed[innode_6] 0
loadshed[innode_7] 0
loadshed[innode_8] 0
loadshed[source_1] -2.0337481212712549e-01
loadshed[source_2] -3.4109326454535793e-02
loadshed[source_3] 3.2523753609621131e-01
loadshed[sink_1] 0
loadshed[sink_2] 0
loadshed[sink_3] 0
loadshed[sink_4] 0
loadshed[sink_5] 0
loadshed[sink_6] 0
loadshed[sink_7] 0
loadshed[sink_8] 0
loadshed[sink_9] 0
loadshed[sink_10] 0
loadshed[sink_11] 0
loadshed[sink_12] 8.4828284264099685e-01
loadshed[sink_13] 0
loadshed[sink_14] 0
loadshed[sink_15] 0
loadshed[sink_16] 0
loadshed[sink_17] 0
loadshed[sink_18] 0
loadshed[sink_19] 0
loadshed[sink_20] 0
loadshed[sink_21] 0
loadshed[sink_22] 0
loadshed[sink_23] 0
loadshed[sink_24] 0
loadshed[sink_25] 0
loadshed[sink_26] 0
loadshed[sink_27] 0
loadshed[sink_28] 0
loadshed[sink_29] 0
flow[source_1,sink_3] 1.9024185831995840e+02
flow[innode_1,sink_16] 1.6354166666666970e+01
flow[innode_6,sink_13] 7.8057813140996242e+00
flow[sink_13,sink_14] -8.5483853525670437e+00
flow[sink_14,sink_10] -2.4902552019234008e+01
flow[sink_25,sink_26] 2.3143954101097628e+02
flow[sink_26,sink_9] 1.3331454101097560e+02
flow[sink_9,sink_18] 1.1696037434430893e+02
flow[sink_26,sink_4] 8.1770833333333925e+01
flow[sink_4,sink_20] 2.2254966320280637e+01
flow[sink_18,sink_6] 1.0060620767764226e+02
flow[sink_25,innode_8] -1.5753352498662204e+02
flow[sink_6,sink_7] 5.1543707677642033e+01
flow[sink_6,sink_22] 3.2708333333333641e+01
flow[sink_7,sink_24] 3.5189541010975368e+01
flow[sink_22,sink_1] 1.6354166666666970e+01
flow[sink_24,sink_21] 18.8353743443087
flow[sink_21,sink_12] 2.4812076776420313e+00
flow[sink_7,sink_5] 0
flow[sink_5,sink_17] -1.6354166666667197e+01
flow[sink_17,sink_4] -4.3161700346386624e+01
flow[sink_17,sink_8] 1.0453367013052723e+01
flow[sink_3,sink_23] 16.3541666666697
flow[sink_8,sink_20] -5.9007996536139444e+00
flow[sink_25,sink_20] 0
flow[sink_25,sink_15] -9.8065964005120350e+01
flow[sink_15,sink_29] -6.3673146630420788e+01
flow[sink_29,sink_28] 1.6354166666667879e+01
flow[sink_29,sink_2] 67.1011507080329
flow[sink_2,sink_15] 5.0746984041366240e+01
flow[sink_29,innode_7] -1.6348263067178823e+02
flow[innode_4,sink_19] 40.8313167603084
flow[sink_19,innode_3] 0
flow[innode_4,innode_5] 6.5842068592259309e+01
flow[sink_27,innode_5] -6.5842068592259309e+01
flow[sink_27,sink_19] 4.9487901925592638e+01
flow[sink_10,sink_11] 3.2708333333333641e+01
flow[sink_10,innode_2] -73.9650520192341
flow[sink_10,innode_3] 0
flow[innode_6,sink_25] -7.8057813140996242e+00
flow[sink_11,innode_1] 1.6354166666666970e+01
flow[sink_19,innode_2] 73.9650520192341
flow[source_3,innode_4] 1.0667338535256771e+02
flow[source_2,innode_7] 1.6348263067178823e+02
flow[sink_3,innode_8] 1.5753352498662204e+02
pressure[innode_1] 75.2980095267619
pressure[innode_2] 7.9359069319251830e+01
pressure[innode_3] 7.5449710834365447e+01
pressure[innode_4] 81.01325
pressure[innode_5] 8.0967960353359217e+01
pressure[innode_6] 7.4299588994842026e+01
pressure[innode_7] 81.01325
pressure[innode_8] 8.0377344142660434e+01
pressure[source_1] 81.01325
pressure[source_2] 81.01325
pressure[source_3] 81.01325
pressure[sink_1] 4.1000680838407035e+01
pressure[sink_2] 7.4940982196323333e+01
pressure[sink_3] 8.0377344142660434e+01
pressure[sink_4] 4.7602882655979656e+01
pressure[sink_5] 4.4735117584693576e+01
pressure[sink_6] 4.3101758448794406e+01
pressure[sink_7] 4.2394186203984219e+01
pressure[sink_8] 4.5558952095466147e+01
pressure[sink_9] 5.0020218683478276e+01
pressure[sink_10] 7.5449710834365447e+01
pressure[sink_11] 75.2980095267619
pressure[sink_12] 1.01325
pressure[sink_13] 7.4256557026924639e+01
pressure[sink_14] 7.4271855090674478e+01
pressure[sink_15] 7.4775304477883410e+01
pressure[sink_16] 7.4276359691944222e+01
pressure[sink_17] 4.5953384790048325e+01
pressure[sink_18] 4.5788243737832794e+01
pressure[sink_19] 7.9359069319251830e+01
pressure[sink_20] 4.5970154846778151e+01
pressure[sink_21] 1.8961994887301907e+00
pressure[sink_22] 4.2064449980762042e+01
pressure[sink_23] 8.0212626131000647e+01
pressure[sink_24] 2.1047837594435350e+00
pressure[sink_25] 7.4299588994842026e+01
pressure[sink_26] 5.7999438038344032e+01
pressure[sink_27] 8.0421592847104520e+01
pressure[sink_28] 7.6345447798382352e+01
pressure[sink_29] 7.6640730071999528e+01
interdiction[source_1,sink_3] 0
interdiction[innode_1,sink_16] 0
interdiction[innode_6,sink_13] 0
interdiction[sink_13,sink_14] 0
interdiction[sink_14,sink_10] 0
interdiction[sink_25,sink_26] 0
interdiction[sink_26,sink_9] 0
interdiction[sink_9,sink_18] 0
interdiction[sink_26,sink_4] 0
interdiction[sink_4,sink_20] 0
interdiction[sink_18,sink_6] 0
interdiction[sink_25,innode_8] 0
interdiction[sink_6,sink_7] 0
interdiction[sink_6,sink_22] 0
interdiction[sink_7,sink_24] 0
interdiction[sink_22,sink_1] 0
interdiction[sink_24,sink_21] 0
interdiction[sink_21,sink_12] 0
interdiction[sink_7,sink_5] 1
interdiction[sink_5,sink_17] 0
interdiction[sink_17,sink_4] 0
interdiction[sink_17,sink_8] 0
interdiction[sink_3,sink_23] 0
interdiction[sink_8,sink_20] 0
interdiction[sink_25,sink_20] 1
interdiction[sink_25,sink_15] 0
interdiction[sink_15,sink_29] 0
interdiction[sink_29,sink_28] 0
interdiction[sink_29,sink_2] 0
interdiction[sink_2,sink_15] 0
interdiction[sink_29,innode_7] 0
interdiction[innode_4,sink_19] 0
interdiction[sink_19,innode_3] 1
interdiction[innode_4,innode_5] 0
interdiction[sink_27,innode_5] 0
interdiction[sink_27,sink_19] 0
interdiction[sink_10,sink_11] 0
interdiction[sink_10,innode_2] 0
interdiction[sink_10,innode_3] 0
interdiction[innode_6,sink_25] 0
interdiction[sink_11,innode_1] 0
interdiction[sink_19,innode_2] 0
interdiction[source_3,innode_4] 0
interdiction[source_2,innode_7] 0
interdiction[sink_3,innode_8] 0
WCcheckFlow[source_1,sink_3] 39
WCcheckFlow[innode_1,sink_16] 1
WCcheckFlow[innode_6,sink_13] 13
WCcheckFlow[sink_13,sink_14] 12
WCcheckFlow[sink_14,sink_10] 11
WCcheckFlow[sink_25,sink_26] 15
WCcheckFlow[sink_26,sink_9] 9
WCcheckFlow[sink_9,sink_18] 8
WCcheckFlow[sink_26,sink_4] 5
WCcheckFlow[sink_4,sink_20] 1
WCcheckFlow[sink_18,sink_6] 7
WCcheckFlow[sink_25,innode_8] -36
WCcheckFlow[sink_6,sink_7] 4
WCcheckFlow[sink_6,sink_22] 2
WCcheckFlow[sink_7,sink_24] 3
WCcheckFlow[sink_22,sink_1] 1
WCcheckFlow[sink_24,sink_21] 2
WCcheckFlow[sink_21,sink_12] 1
WCcheckFlow[sink_7,sink_5] 0
WCcheckFlow[sink_5,sink_17] -1
WCcheckFlow[sink_17,sink_4] -3
WCcheckFlow[sink_17,sink_8] 1
WCcheckFlow[sink_3,sink_23] 1
WCcheckFlow[sink_8,sink_20] 0
WCcheckFlow[sink_25,sink_20] 0
WCcheckFlow[sink_25,sink_15] 6
WCcheckFlow[sink_15,sink_29] 5
WCcheckFlow[sink_29,sink_28] 1
WCcheckFlow[sink_29,sink_2] 1
WCcheckFlow[sink_2,sink_15] 0
WCcheckFlow[sink_29,innode_7] 2
WCcheckFlow[innode_4,sink_19] -4
WCcheckFlow[sink_19,innode_3] 0
WCcheckFlow[innode_4,innode_5] 2
WCcheckFlow[sink_27,innode_5] -1
WCcheckFlow[sink_27,sink_19] 0
WCcheckFlow[sink_10,sink_11] 3
WCcheckFlow[sink_10,innode_2] 6
WCcheckFlow[sink_10,innode_3] 1
WCcheckFlow[innode_6,sink_25] -14
WCcheckFlow[sink_11,innode_1] 2
WCcheckFlow[sink_19,innode_2] -5
WCcheckFlow[source_3,innode_4] -1
WCcheckFlow[source_2,innode_7] -1
WCcheckFlow[sink_3,innode_8] 37
